c Output_time 26.03.2020 18:15:49_+0100 1585242949000895126
c ** Program information **
c program_name                          "QBRG_debug"
c version                               "0.3.20"
c date                                  "25.3.2020"
c gid_id                                "673970833836058123f633335630c185360d632e"
c author                                "Oliver Kullmann"
c url                                   "https://github.com/OKullmann/oklibrary/blob/master/Satisfiability/Transformers/Generators/Random/QBRG.cpp"
c ** Machine information **
c machine_name                          "chyna-Lenovo-G50-70"
c bogomips                              3791.08
c ** Compilation information **
c compiler_version                      "g++ 7.5.0"
c compilation_date                      "Mar_26_2020 11:16:30"
c compilation_options                   "--std=c++17 -pedantic -fmax-errors=5 -Wall -Wextra -g -D_GLIBCXX_DEBUG"
c NDEBUG                                0
c OPTIMIZE                              0
c ** Parameters **
c command-line                          "./QBRG_debug" "a40 e40 a40 40" "795*1,1|2-2,1|3-3,1|4-4,1" "" "1,t" ""
c output                                "QuBlRaGe_160_795_1585242949000735057.qdimacs"
c options                               "filtered,renamed"
c num_quantifier_blocks                 4
c  quantifier_blocks                    1:a1-40 2:e41-80 3:a81-120 4:e121-160
c num_clause-blocks                     1
c  clause-blocks                        795 * {1-40,1,1/2} | {41-80,1,1/2} | {81-120,1,1/2} | {121-160,1,1/2}
c num_e-seeds                           37+2=39
c  e-seeds                              1 0 1 0 5 160 2 40 0 40 1 40 0 40 1 795 4 1 1 1 1 2 2 2 1 1 2 3 3 1 1 2 4 4 1 1 2 1 1585242949000733890
p cnf 160 795
a 1 2 3 4 5 6 7 8 9 10 11 12 13 14 15 16 17 18 19 20 21 22 23 24 25 26 27 28 29 30 31 32 33 34 35 36 37 38 39 40 0
e 41 42 43 44 45 46 47 48 49 50 51 52 53 54 55 56 57 58 59 60 61 62 63 64 65 66 67 68 69 70 71 72 73 74 75 76 77 78 79 80 0
a 81 82 83 84 85 86 87 88 89 90 91 92 93 94 95 96 97 98 99 100 101 102 103 104 105 106 107 108 109 110 111 112 113 114 115 116 117 118 119 120 0
e 121 122 123 124 125 126 127 128 129 130 131 132 133 134 135 136 137 138 139 140 141 142 143 144 145 146 147 148 149 150 151 152 153 154 155 156 157 158 159 160 0
-4 -44 -82 -121 0
-23 -60 88 -121 0
31 75 -92 -121 0
-4 -59 97 -121 0
-32 49 100 -121 0
25 -76 112 -121 0
-20 -41 113 -121 0
-13 -44 113 -121 0
24 43 115 -121 0
-19 -48 120 -121 0
-15 76 90 121 0
4 -64 94 121 0
19 -65 95 121 0
-18 -62 -98 121 0
-14 42 99 121 0
35 71 101 121 0
-30 79 109 121 0
2 -77 -120 121 0
-14 -56 85 -122 0
31 69 -88 -122 0
37 43 88 -122 0
18 -54 -91 -122 0
-4 68 -91 -122 0
29 -75 -100 -122 0
-21 -54 -106 -122 0
-37 -53 -118 -122 0
-11 42 118 -122 0
26 -67 -82 122 0
39 47 82 122 0
-7 -75 82 122 0
-39 -73 -88 122 0
20 -62 -90 122 0
-24 61 103 122 0
10 58 104 122 0
-5 -79 112 122 0
38 49 -82 -123 0
36 75 -93 -123 0
-34 -59 93 -123 0
37 78 94 -123 0
-5 75 -107 -123 0
1 -75 -109 -123 0
-5 -69 114 -123 0
-37 51 84 123 0
-35 42 91 123 0
3 50 -93 123 0
33 -67 -93 123 0
8 -49 94 123 0
24 -52 -104 123 0
-32 74 -104 123 0
32 -58 115 123 0
-11 -50 -118 123 0
-1 76 -119 123 0
3 -60 84 -124 0
-27 73 -85 -124 0
16 60 -86 -124 0
13 48 87 -124 0
32 -76 -93 -124 0
9 53 99 -124 0
-40 49 -100 -124 0
-29 -77 104 -124 0
-39 63 -105 -124 0
-21 -61 -106 -124 0
20 66 -111 -124 0
21 67 118 -124 0
-27 63 -81 124 0
7 66 -88 124 0
-39 -61 -89 124 0
19 55 89 124 0
12 46 92 124 0
30 -44 -95 124 0
-10 72 -97 124 0
-36 50 -106 124 0
-23 -73 -108 124 0
39 44 89 -125 0
14 -48 -91 -125 0
-26 52 -93 -125 0
35 60 -101 -125 0
-28 64 101 -125 0
5 42 -103 -125 0
-29 61 103 -125 0
3 80 -105 -125 0
31 56 -117 -125 0
3 44 119 -125 0
-6 54 -87 125 0
35 41 92 125 0
25 -69 100 125 0
7 74 104 125 0
18 51 111 125 0
9 75 117 125 0
13 76 -119 125 0
-24 53 -81 -126 0
30 47 -88 -126 0
-32 -43 -94 -126 0
-14 45 96 -126 0
-37 54 -98 -126 0
-2 63 98 -126 0
-3 -47 99 -126 0
-16 66 -107 -126 0
4 -75 -111 -126 0
-37 -52 -115 -126 0
1 65 116 -126 0
16 -58 -118 -126 0
31 43 119 -126 0
16 -61 82 126 0
25 47 -103 126 0
24 50 -104 126 0
22 -69 -119 126 0
-23 -70 88 -127 0
8 -80 -90 -127 0
7 78 94 -127 0
13 42 108 -127 0
20 58 108 -127 0
-22 73 113 -127 0
12 -74 119 -127 0
-17 47 -84 127 0
-9 -69 -93 127 0
-11 -53 96 127 0
6 68 -102 127 0
19 -69 103 127 0
15 -66 109 127 0
22 -71 111 127 0
7 57 114 127 0
-36 -58 -117 127 0
-2 -73 85 -128 0
-13 -76 86 -128 0
24 -59 90 -128 0
-30 45 102 -128 0
-21 44 -106 -128 0
17 70 -109 -128 0
-40 -44 -111 -128 0
-38 67 115 -128 0
-31 80 117 -128 0
37 42 -119 -128 0
-21 50 -84 128 0
5 55 -86 128 0
2 -61 -93 128 0
21 -43 97 128 0
32 80 -99 128 0
-30 -47 -109 128 0
-20 -46 -114 128 0
29 -57 115 128 0
-19 51 117 128 0
-35 75 120 128 0
27 -44 89 -129 0
39 -65 -94 -129 0
37 62 94 -129 0
-7 -48 -95 -129 0
-12 -69 95 -129 0
-20 -78 -98 -129 0
-4 -43 -105 -129 0
35 74 -105 -129 0
10 -80 108 -129 0
18 -58 -113 -129 0
14 47 115 -129 0
-12 -43 119 -129 0
-40 -69 119 -129 0
-24 61 -92 129 0
-9 72 105 129 0
26 52 109 129 0
-21 -65 109 129 0
18 55 -116 129 0
-1 -64 81 -130 0
-10 -47 88 -130 0
21 41 106 -130 0
28 43 106 -130 0
14 53 -118 -130 0
-37 62 -81 130 0
-38 46 -82 130 0
18 -69 -82 130 0
-21 -54 -83 130 0
28 -74 -86 130 0
-17 -50 91 130 0
12 68 96 130 0
27 -75 97 130 0
32 55 100 130 0
5 -54 -104 130 0
-30 56 -106 130 0
28 -45 -110 130 0
21 62 -113 130 0
-28 79 -115 130 0
12 -54 -117 130 0
12 -51 -119 130 0
-9 66 -81 -131 0
16 60 85 -131 0
-36 -77 87 -131 0
-14 55 92 -131 0
-31 66 92 -131 0
40 -72 -99 -131 0
6 -41 99 -131 0
-6 -41 -106 -131 0
-28 49 85 131 0
25 -52 90 131 0
40 -64 90 131 0
1 41 -94 131 0
6 -55 -101 131 0
-34 -70 108 131 0
10 62 -117 131 0
11 72 -117 131 0
20 58 -118 131 0
-23 77 81 -132 0
-4 68 -94 -132 0
38 64 95 -132 0
21 -67 -99 -132 0
20 58 -101 -132 0
-15 -59 101 -132 0
-29 -74 102 -132 0
-15 -48 -107 -132 0
33 59 83 132 0
7 51 -87 132 0
-3 77 91 132 0
-34 58 93 132 0
-19 -70 -99 132 0
9 48 104 132 0
20 -69 105 132 0
-20 -73 -120 132 0
-35 51 90 -133 0
1 46 92 -133 0
-35 45 97 -133 0
21 -41 -98 -133 0
-11 -62 100 -133 0
-6 -60 -102 -133 0
-10 -79 -106 -133 0
31 -50 -111 -133 0
-19 -62 -111 -133 0
-23 79 -111 -133 0
-2 -53 -115 -133 0
40 -52 119 -133 0
-14 46 85 133 0
-33 -74 86 133 0
3 58 -87 133 0
-25 41 88 133 0
33 -67 93 133 0
-30 72 94 133 0
26 -48 96 133 0
-1 45 -102 133 0
32 -62 109 133 0
-22 74 -117 133 0
11 53 83 -134 0
-34 67 -104 -134 0
16 53 -109 -134 0
-6 -47 -111 -134 0
14 45 114 -134 0
25 -67 117 -134 0
16 -72 83 134 0
6 51 90 134 0
9 -45 94 134 0
-11 50 94 134 0
-3 49 -97 134 0
25 -78 -97 134 0
25 52 109 134 0
-7 -80 115 134 0
14 -60 -116 134 0
25 45 -84 -135 0
2 64 87 -135 0
-7 -78 -106 -135 0
1 -61 -113 -135 0
12 -47 -114 -135 0
-2 -70 -81 135 0
40 -50 -93 135 0
39 -56 94 135 0
13 59 95 135 0
15 -52 -97 135 0
37 52 -104 135 0
-18 -58 -105 135 0
27 47 105 135 0
38 47 107 135 0
3 -74 -112 135 0
15 -67 -117 135 0
22 -44 -119 135 0
15 -80 119 135 0
31 41 -87 -136 0
31 -53 -88 -136 0
-21 -50 88 -136 0
27 -80 -89 -136 0
2 -65 89 -136 0
19 -59 -94 -136 0
34 -74 95 -136 0
-26 60 101 -136 0
32 -69 102 -136 0
17 -72 -108 -136 0
23 -59 109 -136 0
4 -42 117 -136 0
34 48 -118 -136 0
33 -73 84 136 0
-32 58 -85 136 0
3 -46 -93 136 0
-24 74 -96 136 0
-40 -51 -102 136 0
17 -59 104 136 0
29 76 104 136 0
-27 74 -109 136 0
8 69 114 136 0
6 -78 -81 -137 0
-23 -54 -83 -137 0
-22 -56 83 -137 0
-38 -54 -85 -137 0
32 78 -90 -137 0
9 -45 93 -137 0
-1 -48 98 -137 0
-40 -78 103 -137 0
30 -42 104 -137 0
33 -77 105 -137 0
33 -66 -106 -137 0
-24 74 109 -137 0
5 -51 -115 -137 0
-20 53 117 -137 0
34 -68 -118 -137 0
6 75 120 -137 0
-25 -69 -81 137 0
-39 -61 -90 137 0
29 72 90 137 0
-30 -80 92 137 0
-35 56 -93 137 0
-4 78 94 137 0
9 56 -99 137 0
32 -64 -100 137 0
23 -65 101 137 0
-29 46 -103 137 0
39 -55 -103 137 0
21 58 105 137 0
-6 -54 -106 137 0
28 -70 -116 137 0
23 47 -120 137 0
-17 56 120 137 0
-19 -78 82 -138 0
6 -46 -84 -138 0
-9 43 87 -138 0
14 78 89 -138 0
-27 -77 98 -138 0
-30 -64 101 -138 0
-4 46 107 -138 0
38 -53 115 -138 0
-15 -43 -120 -138 0
-25 62 83 138 0
-20 -72 -97 138 0
32 -52 -101 138 0
-1 74 105 138 0
38 -45 110 138 0
-29 67 110 138 0
13 -52 112 138 0
16 79 116 138 0
28 55 -120 138 0
21 73 82 -139 0
36 -43 -85 -139 0
-18 61 86 -139 0
21 -58 101 -139 0
7 42 108 -139 0
-21 73 -118 -139 0
-26 -58 88 139 0
17 -46 -96 139 0
33 -47 101 139 0
14 -65 102 139 0
-31 -49 103 139 0
13 42 107 139 0
-15 72 113 139 0
23 -73 115 139 0
-21 70 118 139 0
-14 -42 82 -140 0
-8 67 -83 -140 0
9 -69 89 -140 0
35 50 -90 -140 0
4 71 96 -140 0
1 80 -99 -140 0
40 45 99 -140 0
-37 -66 99 -140 0
20 47 106 -140 0
10 -52 108 -140 0
9 -58 110 -140 0
-36 -55 -112 -140 0
-31 55 114 -140 0
9 -69 -120 -140 0
-20 68 -89 140 0
36 55 -92 140 0
1 80 -96 140 0
20 -57 96 140 0
-29 53 -107 140 0
6 -61 -109 140 0
34 -47 110 140 0
17 -61 -118 140 0
-19 -74 -81 -141 0
-38 47 86 -141 0
33 -53 87 -141 0
10 -73 89 -141 0
-38 -54 -93 -141 0
4 54 98 -141 0
18 50 -102 -141 0
40 63 -108 -141 0
16 51 -114 -141 0
-37 -43 87 141 0
31 65 -88 141 0
23 41 90 141 0
-24 -56 -95 141 0
-3 -48 -105 141 0
28 49 -109 141 0
19 54 -109 141 0
11 43 -111 141 0
-38 -50 -114 141 0
20 42 114 141 0
15 -76 -115 141 0
32 -61 119 141 0
12 71 87 -142 0
-38 67 94 -142 0
10 -65 95 -142 0
-31 -70 100 -142 0
25 67 102 -142 0
4 -73 -104 -142 0
-4 -67 105 -142 0
-26 79 -106 -142 0
1 61 81 142 0
-40 68 -82 142 0
24 -80 -85 142 0
30 -77 85 142 0
-29 47 94 142 0
14 -51 100 142 0
5 -51 -102 142 0
-27 -42 113 142 0
-9 49 81 -143 0
26 -52 -87 -143 0
-5 -64 -88 -143 0
-21 -71 98 -143 0
6 56 102 -143 0
35 -64 104 -143 0
13 43 109 -143 0
-16 75 116 -143 0
15 57 -118 -143 0
-27 -74 -119 -143 0
-9 -42 82 143 0
11 -46 86 143 0
-15 56 87 143 0
-6 72 -88 143 0
5 77 98 143 0
5 77 101 143 0
36 53 104 143 0
-17 -80 -107 143 0
-12 -67 110 143 0
-34 47 -111 143 0
-37 78 -112 143 0
39 -78 118 143 0
5 51 120 143 0
-2 43 91 -144 0
-17 -46 98 -144 0
-37 73 100 -144 0
19 42 -101 -144 0
32 79 -104 -144 0
-27 52 108 -144 0
-20 74 110 -144 0
18 -73 -111 -144 0
8 64 -115 -144 0
-24 -71 86 144 0
-14 -74 -90 144 0
-18 65 91 144 0
13 68 107 144 0
-33 -68 109 144 0
-29 -78 109 144 0
20 -79 112 144 0
-8 58 120 144 0
-24 -59 84 -145 0
7 55 89 -145 0
-4 62 90 -145 0
-33 -63 97 -145 0
9 -52 103 -145 0
-31 56 -106 -145 0
2 -79 -112 -145 0
31 71 -113 -145 0
29 59 -83 145 0
-33 -69 89 145 0
2 43 91 145 0
32 69 92 145 0
18 53 95 145 0
-9 -52 -97 145 0
40 47 101 145 0
12 -80 -111 145 0
-6 57 -114 145 0
-29 -76 -116 145 0
37 -45 -117 145 0
-10 -76 120 145 0
-29 -56 81 -146 0
27 62 -86 -146 0
2 73 -90 -146 0
-3 49 -92 -146 0
5 -65 95 -146 0
8 66 95 -146 0
-21 62 -98 -146 0
-17 -66 108 -146 0
37 51 120 -146 0
34 -80 87 146 0
37 -46 -92 146 0
-36 -42 101 146 0
13 74 -103 146 0
-2 45 110 146 0
16 -45 118 146 0
-10 47 -87 -147 0
35 -61 -88 -147 0
-34 -41 93 -147 0
5 -58 94 -147 0
-7 68 -95 -147 0
32 -59 95 -147 0
-29 -47 99 -147 0
-13 -74 -107 -147 0
3 -43 108 -147 0
27 73 -112 -147 0
-10 64 117 -147 0
40 51 -118 -147 0
-36 -67 -119 -147 0
-17 49 119 -147 0
29 -77 -86 147 0
15 50 89 147 0
2 -64 89 147 0
23 -54 -93 147 0
-8 66 93 147 0
15 -70 93 147 0
-31 79 97 147 0
24 68 -98 147 0
5 -56 -101 147 0
18 -59 101 147 0
-33 47 -103 147 0
-18 46 -105 147 0
-13 -69 106 147 0
11 65 -108 147 0
-17 -74 -110 147 0
33 -78 115 147 0
31 78 -83 -148 0
-22 70 86 -148 0
-26 71 86 -148 0
22 54 94 -148 0
-9 64 -103 -148 0
-1 -69 106 -148 0
38 46 -107 -148 0
14 49 111 -148 0
12 73 113 -148 0
20 51 116 -148 0
8 53 82 148 0
15 51 101 148 0
-23 56 105 148 0
33 -56 -106 148 0
22 -51 -111 148 0
-40 -70 115 148 0
-40 -51 116 148 0
-11 68 117 148 0
-13 72 87 -149 0
-7 -64 -89 -149 0
-37 -42 -95 -149 0
-22 -69 -99 -149 0
-16 63 82 149 0
2 49 -90 149 0
-36 -71 -96 149 0
34 -51 -102 149 0
-1 59 104 149 0
-11 -71 107 149 0
5 46 -110 149 0
7 -63 -111 149 0
6 -48 -115 149 0
-34 -61 94 -150 0
24 56 -97 -150 0
6 -77 -97 -150 0
20 -45 -98 -150 0
-36 79 100 -150 0
-40 65 -103 -150 0
-25 67 -110 -150 0
-25 -42 112 -150 0
-27 45 113 -150 0
-14 -51 -115 -150 0
16 53 87 150 0
-8 -46 88 150 0
-16 -80 92 150 0
-4 -42 -94 150 0
-39 -51 -95 150 0
28 50 99 150 0
-23 42 -100 150 0
24 48 101 150 0
10 -75 -112 150 0
10 62 -115 150 0
-32 -55 115 150 0
36 -53 -119 150 0
12 -69 -119 150 0
-20 -55 119 150 0
40 -70 -84 -151 0
-10 -69 -91 -151 0
3 -66 -92 -151 0
-32 48 93 -151 0
-36 68 93 -151 0
36 -67 94 -151 0
-17 -69 101 -151 0
-25 53 -116 -151 0
4 67 -116 -151 0
6 -69 -84 151 0
-15 -56 -90 151 0
22 71 -92 151 0
-9 55 96 151 0
-16 -68 100 151 0
40 -42 102 151 0
-24 80 110 151 0
-13 -61 -113 151 0
-18 -59 -116 151 0
-22 73 -120 151 0
-17 58 -84 -152 0
-40 -74 -85 -152 0
-36 -72 86 -152 0
38 -76 89 -152 0
-11 -44 91 -152 0
-40 -65 -92 -152 0
1 -72 -98 -152 0
37 56 103 -152 0
-4 -78 109 -152 0
18 -61 -111 -152 0
10 -46 -114 -152 0
-40 -64 115 -152 0
-4 49 -116 -152 0
-40 -64 116 -152 0
-31 72 -118 -152 0
3 -52 -94 152 0
-29 -76 -95 152 0
6 52 99 152 0
34 -44 113 152 0
8 -53 -119 152 0
-8 80 120 152 0
31 -72 -87 -153 0
8 -59 -99 -153 0
20 44 -105 -153 0
-34 -65 -111 -153 0
-12 58 -115 -153 0
-11 41 -117 -153 0
-12 -72 120 -153 0
-28 49 88 153 0
22 67 -104 153 0
2 74 104 153 0
-2 -59 -107 153 0
8 56 -110 153 0
10 70 119 153 0
16 78 -120 153 0
-36 46 -83 -154 0
-4 -65 -86 -154 0
-19 -66 -86 -154 0
8 79 86 -154 0
-2 -61 -87 -154 0
-26 -54 -89 -154 0
-1 -73 90 -154 0
-11 48 -93 -154 0
-1 -53 95 -154 0
8 51 97 -154 0
12 72 97 -154 0
-6 51 98 -154 0
-40 -50 -99 -154 0
-18 55 102 -154 0
20 41 105 -154 0
32 -79 -106 -154 0
18 70 -112 -154 0
20 49 114 -154 0
-16 70 115 -154 0
22 59 117 -154 0
-25 78 -119 -154 0
17 -52 -84 154 0
-11 -79 88 154 0
-23 62 90 154 0
-18 -42 -97 154 0
-20 73 -100 154 0
35 58 81 -155 0
14 -60 81 -155 0
-5 47 82 -155 0
-16 48 84 -155 0
-5 41 -87 -155 0
25 59 -87 -155 0
7 -66 88 -155 0
34 -60 -89 -155 0
-12 -60 -91 -155 0
-6 -49 93 -155 0
-19 -59 97 -155 0
-1 75 97 -155 0
-40 -78 -100 -155 0
25 62 -104 -155 0
-23 -54 -107 -155 0
-9 48 107 -155 0
40 71 -113 -155 0
-17 47 -115 -155 0
11 -73 -115 -155 0
32 70 120 -155 0
4 79 83 155 0
-17 79 -96 155 0
31 58 96 155 0
-14 75 -97 155 0
31 59 -99 155 0
-9 65 -108 155 0
-26 -71 112 155 0
-33 53 -116 155 0
7 -41 85 -156 0
-9 53 -96 -156 0
-21 -73 100 -156 0
-11 48 102 -156 0
-28 -66 102 -156 0
28 49 -106 -156 0
-18 53 106 -156 0
-2 80 108 -156 0
13 77 112 -156 0
27 -69 -85 156 0
-13 62 -92 156 0
-2 -68 -92 156 0
-9 67 97 156 0
40 72 -99 156 0
10 59 -100 156 0
-22 -67 105 156 0
-23 -73 -106 156 0
-22 65 109 156 0
24 78 113 156 0
-15 -54 -117 156 0
12 -58 -83 -157 0
-20 43 -84 -157 0
-39 -80 -85 -157 0
22 45 -94 -157 0
-26 49 -94 -157 0
-36 -47 -96 -157 0
-28 47 102 -157 0
-25 68 -107 -157 0
-4 -63 107 -157 0
29 -75 108 -157 0
36 78 111 -157 0
-18 68 113 -157 0
-15 -43 -115 -157 0
19 60 -86 157 0
38 53 -88 157 0
13 65 97 157 0
10 57 -113 157 0
35 49 120 157 0
-10 -62 -81 -158 0
6 51 -87 -158 0
-23 -69 87 -158 0
-22 -79 -93 -158 0
38 70 -94 -158 0
-32 61 -99 -158 0
-31 49 100 -158 0
27 -46 -103 -158 0
40 69 105 -158 0
29 -74 -110 -158 0
-29 -45 112 -158 0
37 62 114 -158 0
39 -78 117 -158 0
-38 -57 118 -158 0
-15 -67 -83 158 0
-1 -69 86 158 0
30 52 -92 158 0
37 -45 -94 158 0
-7 79 -94 158 0
13 -67 -97 158 0
-39 -73 -98 158 0
-12 -60 105 158 0
22 55 110 158 0
-35 -49 -116 158 0
5 50 -82 -159 0
-40 80 -83 -159 0
-32 46 86 -159 0
27 -69 86 -159 0
-4 79 87 -159 0
-29 75 -91 -159 0
-25 -68 95 -159 0
1 -59 -104 -159 0
32 50 -105 -159 0
-19 -46 106 -159 0
6 -77 -114 -159 0
-14 -55 114 -159 0
-12 -69 -118 -159 0
37 -41 84 159 0
-3 -55 -94 159 0
40 -55 94 159 0
37 73 94 159 0
-3 50 -98 159 0
8 60 100 159 0
38 -70 -109 159 0
-38 59 111 159 0
-37 56 113 159 0
-10 -62 114 159 0
33 -69 -120 159 0
33 -78 82 -160 0
-31 58 -84 -160 0
-14 -47 85 -160 0
20 -75 -93 -160 0
39 -44 94 -160 0
-15 -54 -99 -160 0
32 45 99 -160 0
-1 -67 -100 -160 0
-7 68 102 -160 0
6 -45 -106 -160 0
-20 43 108 -160 0
5 53 -114 -160 0
19 61 -116 -160 0
-29 80 -116 -160 0
7 42 -118 -160 0
-1 55 -89 160 0
-32 -62 -91 160 0
-4 -54 -95 160 0
19 -68 -95 160 0
-10 -76 103 160 0
-25 -43 -106 160 0
-7 58 -107 160 0
26 -80 109 160 0
17 79 -116 160 0
15 -62 120 160 0
